c CNF file corresponding to a (partial) station packing problem.
p cnf 5302 229
1 2 3 4 5 6 7 8 9 10 11 12 13 14 0
-1 -2 0
-1 -3 0
-1 -4 0
-1 -5 0
-1 -6 0
-1 -7 0
-1 -8 0
-1 -9 0
-1 -10 0
-1 -11 0
-1 -12 0
-1 -13 0
-1 -14 0
-2 -3 0
-2 -4 0
-2 -5 0
-2 -6 0
-2 -7 0
-2 -8 0
-2 -9 0
-2 -10 0
-2 -11 0
-2 -12 0
-2 -13 0
-2 -14 0
-3 -4 0
-3 -5 0
-3 -6 0
-3 -7 0
-3 -8 0
-3 -9 0
-3 -10 0
-3 -11 0
-3 -12 0
-3 -13 0
-3 -14 0
-4 -5 0
-4 -6 0
-4 -7 0
-4 -8 0
-4 -9 0
-4 -10 0
-4 -11 0
-4 -12 0
-4 -13 0
-4 -14 0
-5 -6 0
-5 -7 0
-5 -8 0
-5 -9 0
-5 -10 0
-5 -11 0
-5 -12 0
-5 -13 0
-5 -14 0
-6 -7 0
-6 -8 0
-6 -9 0
-6 -10 0
-6 -11 0
-6 -12 0
-6 -13 0
-6 -14 0
-7 -8 0
-7 -9 0
-7 -10 0
-7 -11 0
-7 -12 0
-7 -13 0
-7 -14 0
-8 -9 0
-8 -10 0
-8 -11 0
-8 -12 0
-8 -13 0
-8 -14 0
-9 -10 0
-9 -11 0
-9 -12 0
-9 -13 0
-9 -14 0
-10 -11 0
-10 -12 0
-10 -13 0
-10 -14 0
-11 -12 0
-11 -13 0
-11 -14 0
-12 -13 0
-12 -14 0
-13 -14 0
5286 5287 5288 5289 5290 5291 5292 5293 5294 5295 5296 5297 5298 5299 5300 5301 5302 0
-5286 -5287 0
-5286 -5288 0
-5286 -5289 0
-5286 -5290 0
-5286 -5291 0
-5286 -5292 0
-5286 -5293 0
-5286 -5294 0
-5286 -5295 0
-5286 -5296 0
-5286 -5297 0
-5286 -5298 0
-5286 -5299 0
-5286 -5300 0
-5286 -5301 0
-5286 -5302 0
-5287 -5288 0
-5287 -5289 0
-5287 -5290 0
-5287 -5291 0
-5287 -5292 0
-5287 -5293 0
-5287 -5294 0
-5287 -5295 0
-5287 -5296 0
-5287 -5297 0
-5287 -5298 0
-5287 -5299 0
-5287 -5300 0
-5287 -5301 0
-5287 -5302 0
-5288 -5289 0
-5288 -5290 0
-5288 -5291 0
-5288 -5292 0
-5288 -5293 0
-5288 -5294 0
-5288 -5295 0
-5288 -5296 0
-5288 -5297 0
-5288 -5298 0
-5288 -5299 0
-5288 -5300 0
-5288 -5301 0
-5288 -5302 0
-5289 -5290 0
-5289 -5291 0
-5289 -5292 0
-5289 -5293 0
-5289 -5294 0
-5289 -5295 0
-5289 -5296 0
-5289 -5297 0
-5289 -5298 0
-5289 -5299 0
-5289 -5300 0
-5289 -5301 0
-5289 -5302 0
-5290 -5291 0
-5290 -5292 0
-5290 -5293 0
-5290 -5294 0
-5290 -5295 0
-5290 -5296 0
-5290 -5297 0
-5290 -5298 0
-5290 -5299 0
-5290 -5300 0
-5290 -5301 0
-5290 -5302 0
-5291 -5292 0
-5291 -5293 0
-5291 -5294 0
-5291 -5295 0
-5291 -5296 0
-5291 -5297 0
-5291 -5298 0
-5291 -5299 0
-5291 -5300 0
-5291 -5301 0
-5291 -5302 0
-5292 -5293 0
-5292 -5294 0
-5292 -5295 0
-5292 -5296 0
-5292 -5297 0
-5292 -5298 0
-5292 -5299 0
-5292 -5300 0
-5292 -5301 0
-5292 -5302 0
-5293 -5294 0
-5293 -5295 0
-5293 -5296 0
-5293 -5297 0
-5293 -5298 0
-5293 -5299 0
-5293 -5300 0
-5293 -5301 0
-5293 -5302 0
-5294 -5295 0
-5294 -5296 0
-5294 -5297 0
-5294 -5298 0
-5294 -5299 0
-5294 -5300 0
-5294 -5301 0
-5294 -5302 0
-5295 -5296 0
-5295 -5297 0
-5295 -5298 0
-5295 -5299 0
-5295 -5300 0
-5295 -5301 0
-5295 -5302 0
-5296 -5297 0
-5296 -5298 0
-5296 -5299 0
-5296 -5300 0
-5296 -5301 0
-5296 -5302 0
-5297 -5298 0
-5297 -5299 0
-5297 -5300 0
-5297 -5301 0
-5297 -5302 0
-5298 -5299 0
-5298 -5300 0
-5298 -5301 0
-5298 -5302 0
-5299 -5300 0
-5299 -5301 0
-5299 -5302 0
-5300 -5301 0
-5300 -5302 0
-5301 -5302 0
